c CNF file corresponding to a (partial) station packing problem.
p cnf 1899 229
1 2 3 4 5 6 7 8 9 10 11 12 13 14 0
-1 -2 0
-1 -3 0
-1 -4 0
-1 -5 0
-1 -6 0
-1 -7 0
-1 -8 0
-1 -9 0
-1 -10 0
-1 -11 0
-1 -12 0
-1 -13 0
-1 -14 0
-2 -3 0
-2 -4 0
-2 -5 0
-2 -6 0
-2 -7 0
-2 -8 0
-2 -9 0
-2 -10 0
-2 -11 0
-2 -12 0
-2 -13 0
-2 -14 0
-3 -4 0
-3 -5 0
-3 -6 0
-3 -7 0
-3 -8 0
-3 -9 0
-3 -10 0
-3 -11 0
-3 -12 0
-3 -13 0
-3 -14 0
-4 -5 0
-4 -6 0
-4 -7 0
-4 -8 0
-4 -9 0
-4 -10 0
-4 -11 0
-4 -12 0
-4 -13 0
-4 -14 0
-5 -6 0
-5 -7 0
-5 -8 0
-5 -9 0
-5 -10 0
-5 -11 0
-5 -12 0
-5 -13 0
-5 -14 0
-6 -7 0
-6 -8 0
-6 -9 0
-6 -10 0
-6 -11 0
-6 -12 0
-6 -13 0
-6 -14 0
-7 -8 0
-7 -9 0
-7 -10 0
-7 -11 0
-7 -12 0
-7 -13 0
-7 -14 0
-8 -9 0
-8 -10 0
-8 -11 0
-8 -12 0
-8 -13 0
-8 -14 0
-9 -10 0
-9 -11 0
-9 -12 0
-9 -13 0
-9 -14 0
-10 -11 0
-10 -12 0
-10 -13 0
-10 -14 0
-11 -12 0
-11 -13 0
-11 -14 0
-12 -13 0
-12 -14 0
-13 -14 0
1883 1884 1885 1886 1887 1888 1889 1890 1891 1892 1893 1894 1895 1896 1897 1898 1899 0
-1883 -1884 0
-1883 -1885 0
-1883 -1886 0
-1883 -1887 0
-1883 -1888 0
-1883 -1889 0
-1883 -1890 0
-1883 -1891 0
-1883 -1892 0
-1883 -1893 0
-1883 -1894 0
-1883 -1895 0
-1883 -1896 0
-1883 -1897 0
-1883 -1898 0
-1883 -1899 0
-1884 -1885 0
-1884 -1886 0
-1884 -1887 0
-1884 -1888 0
-1884 -1889 0
-1884 -1890 0
-1884 -1891 0
-1884 -1892 0
-1884 -1893 0
-1884 -1894 0
-1884 -1895 0
-1884 -1896 0
-1884 -1897 0
-1884 -1898 0
-1884 -1899 0
-1885 -1886 0
-1885 -1887 0
-1885 -1888 0
-1885 -1889 0
-1885 -1890 0
-1885 -1891 0
-1885 -1892 0
-1885 -1893 0
-1885 -1894 0
-1885 -1895 0
-1885 -1896 0
-1885 -1897 0
-1885 -1898 0
-1885 -1899 0
-1886 -1887 0
-1886 -1888 0
-1886 -1889 0
-1886 -1890 0
-1886 -1891 0
-1886 -1892 0
-1886 -1893 0
-1886 -1894 0
-1886 -1895 0
-1886 -1896 0
-1886 -1897 0
-1886 -1898 0
-1886 -1899 0
-1887 -1888 0
-1887 -1889 0
-1887 -1890 0
-1887 -1891 0
-1887 -1892 0
-1887 -1893 0
-1887 -1894 0
-1887 -1895 0
-1887 -1896 0
-1887 -1897 0
-1887 -1898 0
-1887 -1899 0
-1888 -1889 0
-1888 -1890 0
-1888 -1891 0
-1888 -1892 0
-1888 -1893 0
-1888 -1894 0
-1888 -1895 0
-1888 -1896 0
-1888 -1897 0
-1888 -1898 0
-1888 -1899 0
-1889 -1890 0
-1889 -1891 0
-1889 -1892 0
-1889 -1893 0
-1889 -1894 0
-1889 -1895 0
-1889 -1896 0
-1889 -1897 0
-1889 -1898 0
-1889 -1899 0
-1890 -1891 0
-1890 -1892 0
-1890 -1893 0
-1890 -1894 0
-1890 -1895 0
-1890 -1896 0
-1890 -1897 0
-1890 -1898 0
-1890 -1899 0
-1891 -1892 0
-1891 -1893 0
-1891 -1894 0
-1891 -1895 0
-1891 -1896 0
-1891 -1897 0
-1891 -1898 0
-1891 -1899 0
-1892 -1893 0
-1892 -1894 0
-1892 -1895 0
-1892 -1896 0
-1892 -1897 0
-1892 -1898 0
-1892 -1899 0
-1893 -1894 0
-1893 -1895 0
-1893 -1896 0
-1893 -1897 0
-1893 -1898 0
-1893 -1899 0
-1894 -1895 0
-1894 -1896 0
-1894 -1897 0
-1894 -1898 0
-1894 -1899 0
-1895 -1896 0
-1895 -1897 0
-1895 -1898 0
-1895 -1899 0
-1896 -1897 0
-1896 -1898 0
-1896 -1899 0
-1897 -1898 0
-1897 -1899 0
-1898 -1899 0
